(set-logic HORN)
(declare-fun state (Int (Array Int Int) (Array Int Int) (Array Int Int) (Array Int Int) (Array Int Int) (Array Int Int) Int Int (Array Int Int) (Array Int Int) Int Int (Array Int Int) (Array Int Int) Int Int Int Int Int Int Int Int Int Int Int Int Int Int Int Int Int Int Int Int Int Bool Bool Bool (Array Int Int)) Bool)
(assert (forall ((|hhv_ULTIMATE.start_L-1_0_Int| Int) (|hhv_ULTIMATE.start_L-1_1_Array_Int_Array_Int_Int| (Array Int Int)) (|hhv_ULTIMATE.start_L-1_2_Array_Int_Array_Int_Int| (Array Int Int)) (|hbv_ULTIMATE.start_ULTIMATE.startENTRY_3_Array_Int_Int| (Array Int Int)) (|hhv_ULTIMATE.start_L-1_4_Array_Int_Int| (Array Int Int)) (|hhv_ULTIMATE.start_L-1_5_Array_Int_Array_Int_Int| (Array Int Int)) (|hhv_ULTIMATE.start_L-1_6_Array_Int_Array_Int_Int| (Array Int Int)) (|hbv_ULTIMATE.start_ULTIMATE.startENTRY_7_Int| Int) (|hhv_ULTIMATE.start_L-1_8_Int| Int) (|hhv_ULTIMATE.start_L-1_9_Array_Int_Int| (Array Int Int)) (|hhv_ULTIMATE.start_L-1_10_Array_Int_Int| (Array Int Int)) (|hbv_ULTIMATE.start_ULTIMATE.startENTRY_11_Int| Int) (|hhv_ULTIMATE.start_L-1_12_Int| Int) (|hhv_ULTIMATE.start_L-1_13_Array_Int_Array_Int_Int| (Array Int Int)) (|hhv_ULTIMATE.start_L-1_14_Array_Int_Array_Int_Int| (Array Int Int)) (|hhv_ULTIMATE.start_L-1_15_Int| Int) (|hhv_ULTIMATE.start_L-1_16_Int| Int) (|hhv_ULTIMATE.start_L-1_17_Int| Int) (|hhv_ULTIMATE.start_L-1_18_Int| Int) (|hhv_ULTIMATE.start_L-1_19_Int| Int) (|hhv_ULTIMATE.start_L-1_20_Int| Int) (|hhv_ULTIMATE.start_L-1_21_Int| Int) (|hhv_ULTIMATE.start_L-1_22_Int| Int) (|hhv_ULTIMATE.start_L-1_23_Int| Int) (|hhv_ULTIMATE.start_L-1_24_Int| Int) (|hhv_ULTIMATE.start_L-1_25_Int| Int) (|hhv_ULTIMATE.start_L-1_26_Int| Int) (|hhv_ULTIMATE.start_L-1_27_Int| Int) (|hhv_ULTIMATE.start_L-1_28_Int| Int) (|hhv_ULTIMATE.start_L-1_29_Int| Int) (|hhv_ULTIMATE.start_L-1_30_Int| Int) (|hhv_ULTIMATE.start_L-1_31_Int| Int) (|hhv_ULTIMATE.start_L-1_32_Int| Int) (|hhv_ULTIMATE.start_L-1_33_Int| Int) (|hhv_ULTIMATE.start_L-1_34_Int| Int) (|hhv_ULTIMATE.start_L-1_35_Int| Int) (|hhv_ULTIMATE.start_L-1_36_Bool| Bool) (|.loc.3| Bool) (|.loc.4| Bool) (|hbv_ULTIMATE.start_L-1_3_Array_Int_Int| (Array Int Int)) (|.x.135| (Array Int Int)) (|.x.133| Int) (|.x.131| (Array Int Int)) (|.x.129| Int) (|.x.127| (Array Int Int)) (|.x.125| (Array Int Int)) (|.x.121| Int) (|.x.123| (Array Int Int)) (|.loc.5| Bool) (|.loc.6| Bool) (|.x.139| Int) (|.x.144| Int) (|.x.156| Int) (|.x.134| (Array Int Int)) (|.x.137| Int) (|.x.148| Int) (|.x.141| Int) (|.x.138| Int) (|.x.146| Int) (|.x.150| Int) (|.x.126| (Array Int Int)) (|.x.124| (Array Int Int)) (|.x.130| (Array Int Int)) (|.x.140| Int) (|.x.136| Int) (|.x.155| Int) (|.x.154| Int) (|.x.149| Int) (|.x.151| Int) (|.x.122| (Array Int Int)) (|.x.132| Int) (|.x.128| Int) (|hhv_ULTIMATE.start_ULTIMATE.startEXIT_36_Bool| Bool) (|.x.142| Int) (|.x.145| Int) (|.x.143| Int) (|.x.147| Int) (|.x.152| Int) (|.x.153| Int) (|.xtv.1| (Array Int Int))) (=> (and (and (not .loc.4) (not .loc.3)) (and (and (and (and (and (and (and (= hbv_ULTIMATE.start_ULTIMATE.startENTRY_3_Array_Int_Int hhv_ULTIMATE.start_L-1_4_Array_Int_Int) (= hhv_ULTIMATE.start_L-1_5_Array_Int_Array_Int_Int hhv_ULTIMATE.start_L-1_6_Array_Int_Array_Int_Int)) (= hhv_ULTIMATE.start_L-1_9_Array_Int_Int hhv_ULTIMATE.start_L-1_10_Array_Int_Int)) (not hhv_ULTIMATE.start_L-1_36_Bool)) (= hhv_ULTIMATE.start_L-1_1_Array_Int_Array_Int_Int hhv_ULTIMATE.start_L-1_2_Array_Int_Array_Int_Int)) (= hbv_ULTIMATE.start_ULTIMATE.startENTRY_11_Int hhv_ULTIMATE.start_L-1_12_Int)) (= hhv_ULTIMATE.start_L-1_13_Array_Int_Array_Int_Int hhv_ULTIMATE.start_L-1_14_Array_Int_Array_Int_Int)) (= hbv_ULTIMATE.start_ULTIMATE.startENTRY_7_Int hhv_ULTIMATE.start_L-1_8_Int))) (state |hhv_ULTIMATE.start_L-1_0_Int| |hhv_ULTIMATE.start_L-1_1_Array_Int_Array_Int_Int| |hhv_ULTIMATE.start_L-1_2_Array_Int_Array_Int_Int| |hbv_ULTIMATE.start_ULTIMATE.startENTRY_3_Array_Int_Int| |hhv_ULTIMATE.start_L-1_4_Array_Int_Int| |hhv_ULTIMATE.start_L-1_5_Array_Int_Array_Int_Int| |hhv_ULTIMATE.start_L-1_6_Array_Int_Array_Int_Int| |hbv_ULTIMATE.start_ULTIMATE.startENTRY_7_Int| |hhv_ULTIMATE.start_L-1_8_Int| |hhv_ULTIMATE.start_L-1_9_Array_Int_Int| |hhv_ULTIMATE.start_L-1_10_Array_Int_Int| |hbv_ULTIMATE.start_ULTIMATE.startENTRY_11_Int| |hhv_ULTIMATE.start_L-1_12_Int| |hhv_ULTIMATE.start_L-1_13_Array_Int_Array_Int_Int| |hhv_ULTIMATE.start_L-1_14_Array_Int_Array_Int_Int| |hhv_ULTIMATE.start_L-1_15_Int| |hhv_ULTIMATE.start_L-1_16_Int| |hhv_ULTIMATE.start_L-1_17_Int| |hhv_ULTIMATE.start_L-1_18_Int| |hhv_ULTIMATE.start_L-1_19_Int| |hhv_ULTIMATE.start_L-1_20_Int| |hhv_ULTIMATE.start_L-1_21_Int| |hhv_ULTIMATE.start_L-1_22_Int| |hhv_ULTIMATE.start_L-1_23_Int| |hhv_ULTIMATE.start_L-1_24_Int| |hhv_ULTIMATE.start_L-1_25_Int| |hhv_ULTIMATE.start_L-1_26_Int| |hhv_ULTIMATE.start_L-1_27_Int| |hhv_ULTIMATE.start_L-1_28_Int| |hhv_ULTIMATE.start_L-1_29_Int| |hhv_ULTIMATE.start_L-1_30_Int| |hhv_ULTIMATE.start_L-1_31_Int| |hhv_ULTIMATE.start_L-1_32_Int| |hhv_ULTIMATE.start_L-1_33_Int| |hhv_ULTIMATE.start_L-1_34_Int| |hhv_ULTIMATE.start_L-1_35_Int| |hhv_ULTIMATE.start_L-1_36_Bool| |.loc.3| |.loc.4| |hbv_ULTIMATE.start_L-1_3_Array_Int_Int|))))
(assert (forall ((|hhv_ULTIMATE.start_L-1_0_Int| Int) (|hhv_ULTIMATE.start_L-1_1_Array_Int_Array_Int_Int| (Array Int Int)) (|hhv_ULTIMATE.start_L-1_2_Array_Int_Array_Int_Int| (Array Int Int)) (|hbv_ULTIMATE.start_ULTIMATE.startENTRY_3_Array_Int_Int| (Array Int Int)) (|hhv_ULTIMATE.start_L-1_4_Array_Int_Int| (Array Int Int)) (|hhv_ULTIMATE.start_L-1_5_Array_Int_Array_Int_Int| (Array Int Int)) (|hhv_ULTIMATE.start_L-1_6_Array_Int_Array_Int_Int| (Array Int Int)) (|hbv_ULTIMATE.start_ULTIMATE.startENTRY_7_Int| Int) (|hhv_ULTIMATE.start_L-1_8_Int| Int) (|hhv_ULTIMATE.start_L-1_9_Array_Int_Int| (Array Int Int)) (|hhv_ULTIMATE.start_L-1_10_Array_Int_Int| (Array Int Int)) (|hbv_ULTIMATE.start_ULTIMATE.startENTRY_11_Int| Int) (|hhv_ULTIMATE.start_L-1_12_Int| Int) (|hhv_ULTIMATE.start_L-1_13_Array_Int_Array_Int_Int| (Array Int Int)) (|hhv_ULTIMATE.start_L-1_14_Array_Int_Array_Int_Int| (Array Int Int)) (|hhv_ULTIMATE.start_L-1_15_Int| Int) (|hhv_ULTIMATE.start_L-1_16_Int| Int) (|hhv_ULTIMATE.start_L-1_17_Int| Int) (|hhv_ULTIMATE.start_L-1_18_Int| Int) (|hhv_ULTIMATE.start_L-1_19_Int| Int) (|hhv_ULTIMATE.start_L-1_20_Int| Int) (|hhv_ULTIMATE.start_L-1_21_Int| Int) (|hhv_ULTIMATE.start_L-1_22_Int| Int) (|hhv_ULTIMATE.start_L-1_23_Int| Int) (|hhv_ULTIMATE.start_L-1_24_Int| Int) (|hhv_ULTIMATE.start_L-1_25_Int| Int) (|hhv_ULTIMATE.start_L-1_26_Int| Int) (|hhv_ULTIMATE.start_L-1_27_Int| Int) (|hhv_ULTIMATE.start_L-1_28_Int| Int) (|hhv_ULTIMATE.start_L-1_29_Int| Int) (|hhv_ULTIMATE.start_L-1_30_Int| Int) (|hhv_ULTIMATE.start_L-1_31_Int| Int) (|hhv_ULTIMATE.start_L-1_32_Int| Int) (|hhv_ULTIMATE.start_L-1_33_Int| Int) (|hhv_ULTIMATE.start_L-1_34_Int| Int) (|hhv_ULTIMATE.start_L-1_35_Int| Int) (|hhv_ULTIMATE.start_L-1_36_Bool| Bool) (|.loc.3| Bool) (|.loc.4| Bool) (|hbv_ULTIMATE.start_L-1_3_Array_Int_Int| (Array Int Int)) (|.x.135| (Array Int Int)) (|.x.133| Int) (|.x.131| (Array Int Int)) (|.x.129| Int) (|.x.127| (Array Int Int)) (|.x.125| (Array Int Int)) (|.x.121| Int) (|.x.123| (Array Int Int)) (|.loc.5| Bool) (|.loc.6| Bool) (|.x.139| Int) (|.x.144| Int) (|.x.156| Int) (|.x.134| (Array Int Int)) (|.x.137| Int) (|.x.148| Int) (|.x.141| Int) (|.x.138| Int) (|.x.146| Int) (|.x.150| Int) (|.x.126| (Array Int Int)) (|.x.124| (Array Int Int)) (|.x.130| (Array Int Int)) (|.x.140| Int) (|.x.136| Int) (|.x.155| Int) (|.x.154| Int) (|.x.149| Int) (|.x.151| Int) (|.x.122| (Array Int Int)) (|.x.132| Int) (|.x.128| Int) (|hhv_ULTIMATE.start_ULTIMATE.startEXIT_36_Bool| Bool) (|.x.142| Int) (|.x.145| Int) (|.x.143| Int) (|.x.147| Int) (|.x.152| Int) (|.x.153| Int) (|.xtv.1| (Array Int Int))) (=> (and (state |hhv_ULTIMATE.start_L-1_0_Int| |hhv_ULTIMATE.start_L-1_1_Array_Int_Array_Int_Int| |hhv_ULTIMATE.start_L-1_2_Array_Int_Array_Int_Int| |hbv_ULTIMATE.start_ULTIMATE.startENTRY_3_Array_Int_Int| |hhv_ULTIMATE.start_L-1_4_Array_Int_Int| |hhv_ULTIMATE.start_L-1_5_Array_Int_Array_Int_Int| |hhv_ULTIMATE.start_L-1_6_Array_Int_Array_Int_Int| |hbv_ULTIMATE.start_ULTIMATE.startENTRY_7_Int| |hhv_ULTIMATE.start_L-1_8_Int| |hhv_ULTIMATE.start_L-1_9_Array_Int_Int| |hhv_ULTIMATE.start_L-1_10_Array_Int_Int| |hbv_ULTIMATE.start_ULTIMATE.startENTRY_11_Int| |hhv_ULTIMATE.start_L-1_12_Int| |hhv_ULTIMATE.start_L-1_13_Array_Int_Array_Int_Int| |hhv_ULTIMATE.start_L-1_14_Array_Int_Array_Int_Int| |hhv_ULTIMATE.start_L-1_15_Int| |hhv_ULTIMATE.start_L-1_16_Int| |hhv_ULTIMATE.start_L-1_17_Int| |hhv_ULTIMATE.start_L-1_18_Int| |hhv_ULTIMATE.start_L-1_19_Int| |hhv_ULTIMATE.start_L-1_20_Int| |hhv_ULTIMATE.start_L-1_21_Int| |hhv_ULTIMATE.start_L-1_22_Int| |hhv_ULTIMATE.start_L-1_23_Int| |hhv_ULTIMATE.start_L-1_24_Int| |hhv_ULTIMATE.start_L-1_25_Int| |hhv_ULTIMATE.start_L-1_26_Int| |hhv_ULTIMATE.start_L-1_27_Int| |hhv_ULTIMATE.start_L-1_28_Int| |hhv_ULTIMATE.start_L-1_29_Int| |hhv_ULTIMATE.start_L-1_30_Int| |hhv_ULTIMATE.start_L-1_31_Int| |hhv_ULTIMATE.start_L-1_32_Int| |hhv_ULTIMATE.start_L-1_33_Int| |hhv_ULTIMATE.start_L-1_34_Int| |hhv_ULTIMATE.start_L-1_35_Int| |hhv_ULTIMATE.start_L-1_36_Bool| |.loc.3| |.loc.4| |hbv_ULTIMATE.start_L-1_3_Array_Int_Int|) (let ((.def_51 (not .loc.3))) (let ((.def_99 (= .x.139 0))) (let ((.def_103 (+ .x.144 4))) (let ((.def_109 (select (select hhv_ULTIMATE.start_L-1_1_Array_Int_Array_Int_Int .x.156) .def_103))) (let ((.def_112 (select (select hhv_ULTIMATE.start_L-1_13_Array_Int_Array_Int_Int .def_109) (+ (select (select hhv_ULTIMATE.start_L-1_13_Array_Int_Array_Int_Int .x.156) .def_103) 4)))) (let ((.def_114 (select (select hhv_ULTIMATE.start_L-1_1_Array_Int_Array_Int_Int .def_109) (+ (select (select hhv_ULTIMATE.start_L-1_13_Array_Int_Array_Int_Int .x.156) .def_103) 4)))) (let ((.def_124 (store hbv_ULTIMATE.start_L-1_3_Array_Int_Int .x.137 1))) (let ((.def_126 (store .def_124 .x.148 1))) (let ((.def_260 (and (= .x.134 (store hhv_ULTIMATE.start_L-1_13_Array_Int_Array_Int_Int .def_114 (store (select hhv_ULTIMATE.start_L-1_13_Array_Int_Array_Int_Int .def_114) .def_112 (select (select .x.134 .def_114) .def_112)))) (and (= (select .def_126 .x.141) 0) (and (= (select (select hhv_ULTIMATE.start_L-1_5_Array_Int_Array_Int_Int .x.148) .x.138) 2) (and (not (= .x.141 0)) (and (= (select .def_124 .x.148) 0) (and (= .x.138 (select (select hhv_ULTIMATE.start_L-1_13_Array_Int_Array_Int_Int .x.141) (+ .x.146 4))) (and (= .x.138 0) (and (= .x.139 .x.150) (and (= (store hhv_ULTIMATE.start_L-1_5_Array_Int_Array_Int_Int .def_114 (store (select hhv_ULTIMATE.start_L-1_5_Array_Int_Array_Int_Int .def_114) .def_112 4)) .x.126) (and (= (store .def_126 .x.141 1) .x.124) (and (= (store (store (store hhv_ULTIMATE.start_L-1_9_Array_Int_Int .x.137 4) .x.148 8) .x.141 8) .x.130) (and (= .x.137 (select (select hhv_ULTIMATE.start_L-1_1_Array_Int_Array_Int_Int .x.148) (+ .x.138 4))) (and (= (select (select .x.134 .x.156) .def_103) .x.140) (and (= (select (select hhv_ULTIMATE.start_L-1_5_Array_Int_Array_Int_Int .x.137) .x.136) 3) (and (= (select hbv_ULTIMATE.start_L-1_3_Array_Int_Int .x.137) 0) (and (= .x.150 (ite (= .x.155 4) 1 0)) (and (not (= .x.148 0)) (and (= .x.136 (select (select hhv_ULTIMATE.start_L-1_13_Array_Int_Array_Int_Int .x.148) (+ .x.138 4))) (and (= (select (select .x.134 .x.154) (+ .x.140 4)) .x.149) (and (= .x.146 0) (and (= .x.156 .x.141) (and (= .x.155 (select (select .x.126 .x.151) .x.149)) (and (= (select (select hhv_ULTIMATE.start_L-1_5_Array_Int_Array_Int_Int .x.141) .x.146) 1) (and (not (= .x.137 0)) (and (= .x.154 (select (select .x.122 .x.156) .def_103)) (and (not (<= .x.121 .x.137)) (and (= .x.151 (select (select .x.122 .x.154) (+ .x.140 4))) (and (= .x.148 (select (select hhv_ULTIMATE.start_L-1_1_Array_Int_Array_Int_Int .x.141) (+ .x.146 4))) (and (= .x.136 0) (and (= .x.144 .x.146) (and (= .x.122 (store hhv_ULTIMATE.start_L-1_1_Array_Int_Array_Int_Int .def_114 (store (select hhv_ULTIMATE.start_L-1_1_Array_Int_Array_Int_Int .def_114) .def_112 (select (select .x.122 .def_114) .def_112)))) (and (not (<= .x.121 .x.141)) (not (<= .x.121 .x.148)))))))))))))))))))))))))))))))))))) (let ((.def_270 (or hhv_ULTIMATE.start_L-1_36_Bool (and (= hbv_ULTIMATE.start_L-1_3_Array_Int_Int (store hbv_ULTIMATE.start_ULTIMATE.startENTRY_3_Array_Int_Int 0 0)) (and (= .x.132 0) (= .x.128 0)))))) (let ((.def_274 (= hhv_ULTIMATE.start_L-1_21_Int .x.142))) (let ((.def_308 (= hhv_ULTIMATE.start_L-1_36_Bool hhv_ULTIMATE.start_ULTIMATE.startEXIT_36_Bool))) (let ((.def_334 (not .loc.6))) (and (and (not .loc.4) (and (= hhv_ULTIMATE.start_L-1_14_Array_Int_Array_Int_Int .x.135) (and (= hhv_ULTIMATE.start_L-1_12_Int .x.133) (and (= hhv_ULTIMATE.start_L-1_10_Array_Int_Int .x.131) (and (= hhv_ULTIMATE.start_L-1_8_Int .x.129) (and (= hhv_ULTIMATE.start_L-1_6_Array_Int_Array_Int_Int .x.127) (and (= hhv_ULTIMATE.start_L-1_4_Array_Int_Int .x.125) (and (= hhv_ULTIMATE.start_L-1_0_Int .x.121) (= hhv_ULTIMATE.start_L-1_2_Array_Int_Array_Int_Int .x.123))))))))) (or (or (and (and (not .loc.5) .loc.6) (or (and .def_51 (and (or hhv_ULTIMATE.start_L-1_36_Bool .def_99) (and (or hhv_ULTIMATE.start_L-1_36_Bool .def_260) (and (and .def_270 hhv_ULTIMATE.start_ULTIMATE.startEXIT_36_Bool) .def_274)))) (and (or hhv_ULTIMATE.start_L-1_36_Bool (and (= .x.145 0) (= .x.124 (store (store (store hbv_ULTIMATE.start_ULTIMATE.startENTRY_3_Array_Int_Int hhv_ULTIMATE.start_L-1_16_Int 0) hhv_ULTIMATE.start_L-1_27_Int 0) hhv_ULTIMATE.start_L-1_20_Int 0)))) (and (= hhv_ULTIMATE.start_L-1_1_Array_Int_Array_Int_Int .x.122) (and (= hhv_ULTIMATE.start_L-1_5_Array_Int_Array_Int_Int .x.126) (and (= hbv_ULTIMATE.start_ULTIMATE.startENTRY_7_Int .x.128) (and (= hhv_ULTIMATE.start_L-1_9_Array_Int_Int .x.130) (and (= hbv_ULTIMATE.start_ULTIMATE.startENTRY_11_Int .x.132) (and (= hhv_ULTIMATE.start_L-1_13_Array_Int_Array_Int_Int .x.134) (and (= hhv_ULTIMATE.start_L-1_18_Int .x.139) (and (= hhv_ULTIMATE.start_L-1_22_Int .x.143) (and (= hhv_ULTIMATE.start_L-1_23_Int .x.144) (and (= hhv_ULTIMATE.start_L-1_26_Int .x.147) (and (= hhv_ULTIMATE.start_L-1_29_Int .x.150) (and (= hhv_ULTIMATE.start_L-1_31_Int .x.152) (and (= hhv_ULTIMATE.start_L-1_32_Int .x.153) (and (= hhv_ULTIMATE.start_L-1_35_Int .x.156) (and (and .loc.3 (or hhv_ULTIMATE.start_ULTIMATE.startEXIT_36_Bool (= .x.142 .x.145))) .def_308)))))))))))))))))) (and (or .def_260 hhv_ULTIMATE.start_ULTIMATE.startEXIT_36_Bool) (and (or hhv_ULTIMATE.start_ULTIMATE.startEXIT_36_Bool (not .def_99)) (and (and .def_308 (and .loc.5 (and .def_51 (and .def_270 .def_274)))) .def_334)))) (and .def_334 (and .loc.5 (and .def_51 (and .def_274 (and .def_270 (and hhv_ULTIMATE.start_L-1_36_Bool hhv_ULTIMATE.start_ULTIMATE.startEXIT_36_Bool)))))))))))))))))))))) (state |.x.121| |.x.122| |.x.123| |.x.124| |.x.125| |.x.126| |.x.127| |.x.128| |.x.129| |.x.130| |.x.131| |.x.132| |.x.133| |.x.134| |.x.135| |.x.136| |.x.137| |.x.138| |.x.139| |.x.140| |.x.141| |.x.142| |.x.143| |.x.144| |.x.145| |.x.146| |.x.147| |.x.148| |.x.149| |.x.150| |.x.151| |.x.152| |.x.153| |.x.154| |.x.155| |.x.156| |hhv_ULTIMATE.start_ULTIMATE.startEXIT_36_Bool| |.loc.5| |.loc.6| |.xtv.1|))))
(assert (forall ((|hhv_ULTIMATE.start_L-1_0_Int| Int) (|hhv_ULTIMATE.start_L-1_1_Array_Int_Array_Int_Int| (Array Int Int)) (|hhv_ULTIMATE.start_L-1_2_Array_Int_Array_Int_Int| (Array Int Int)) (|hbv_ULTIMATE.start_ULTIMATE.startENTRY_3_Array_Int_Int| (Array Int Int)) (|hhv_ULTIMATE.start_L-1_4_Array_Int_Int| (Array Int Int)) (|hhv_ULTIMATE.start_L-1_5_Array_Int_Array_Int_Int| (Array Int Int)) (|hhv_ULTIMATE.start_L-1_6_Array_Int_Array_Int_Int| (Array Int Int)) (|hbv_ULTIMATE.start_ULTIMATE.startENTRY_7_Int| Int) (|hhv_ULTIMATE.start_L-1_8_Int| Int) (|hhv_ULTIMATE.start_L-1_9_Array_Int_Int| (Array Int Int)) (|hhv_ULTIMATE.start_L-1_10_Array_Int_Int| (Array Int Int)) (|hbv_ULTIMATE.start_ULTIMATE.startENTRY_11_Int| Int) (|hhv_ULTIMATE.start_L-1_12_Int| Int) (|hhv_ULTIMATE.start_L-1_13_Array_Int_Array_Int_Int| (Array Int Int)) (|hhv_ULTIMATE.start_L-1_14_Array_Int_Array_Int_Int| (Array Int Int)) (|hhv_ULTIMATE.start_L-1_15_Int| Int) (|hhv_ULTIMATE.start_L-1_16_Int| Int) (|hhv_ULTIMATE.start_L-1_17_Int| Int) (|hhv_ULTIMATE.start_L-1_18_Int| Int) (|hhv_ULTIMATE.start_L-1_19_Int| Int) (|hhv_ULTIMATE.start_L-1_20_Int| Int) (|hhv_ULTIMATE.start_L-1_21_Int| Int) (|hhv_ULTIMATE.start_L-1_22_Int| Int) (|hhv_ULTIMATE.start_L-1_23_Int| Int) (|hhv_ULTIMATE.start_L-1_24_Int| Int) (|hhv_ULTIMATE.start_L-1_25_Int| Int) (|hhv_ULTIMATE.start_L-1_26_Int| Int) (|hhv_ULTIMATE.start_L-1_27_Int| Int) (|hhv_ULTIMATE.start_L-1_28_Int| Int) (|hhv_ULTIMATE.start_L-1_29_Int| Int) (|hhv_ULTIMATE.start_L-1_30_Int| Int) (|hhv_ULTIMATE.start_L-1_31_Int| Int) (|hhv_ULTIMATE.start_L-1_32_Int| Int) (|hhv_ULTIMATE.start_L-1_33_Int| Int) (|hhv_ULTIMATE.start_L-1_34_Int| Int) (|hhv_ULTIMATE.start_L-1_35_Int| Int) (|hhv_ULTIMATE.start_L-1_36_Bool| Bool) (|.loc.3| Bool) (|.loc.4| Bool) (|hbv_ULTIMATE.start_L-1_3_Array_Int_Int| (Array Int Int)) (|.x.135| (Array Int Int)) (|.x.133| Int) (|.x.131| (Array Int Int)) (|.x.129| Int) (|.x.127| (Array Int Int)) (|.x.125| (Array Int Int)) (|.x.121| Int) (|.x.123| (Array Int Int)) (|.loc.5| Bool) (|.loc.6| Bool) (|.x.139| Int) (|.x.144| Int) (|.x.156| Int) (|.x.134| (Array Int Int)) (|.x.137| Int) (|.x.148| Int) (|.x.141| Int) (|.x.138| Int) (|.x.146| Int) (|.x.150| Int) (|.x.126| (Array Int Int)) (|.x.124| (Array Int Int)) (|.x.130| (Array Int Int)) (|.x.140| Int) (|.x.136| Int) (|.x.155| Int) (|.x.154| Int) (|.x.149| Int) (|.x.151| Int) (|.x.122| (Array Int Int)) (|.x.132| Int) (|.x.128| Int) (|hhv_ULTIMATE.start_ULTIMATE.startEXIT_36_Bool| Bool) (|.x.142| Int) (|.x.145| Int) (|.x.143| Int) (|.x.147| Int) (|.x.152| Int) (|.x.153| Int) (|.xtv.1| (Array Int Int))) (=> (state |hhv_ULTIMATE.start_L-1_0_Int| |hhv_ULTIMATE.start_L-1_1_Array_Int_Array_Int_Int| |hhv_ULTIMATE.start_L-1_2_Array_Int_Array_Int_Int| |hbv_ULTIMATE.start_ULTIMATE.startENTRY_3_Array_Int_Int| |hhv_ULTIMATE.start_L-1_4_Array_Int_Int| |hhv_ULTIMATE.start_L-1_5_Array_Int_Array_Int_Int| |hhv_ULTIMATE.start_L-1_6_Array_Int_Array_Int_Int| |hbv_ULTIMATE.start_ULTIMATE.startENTRY_7_Int| |hhv_ULTIMATE.start_L-1_8_Int| |hhv_ULTIMATE.start_L-1_9_Array_Int_Int| |hhv_ULTIMATE.start_L-1_10_Array_Int_Int| |hbv_ULTIMATE.start_ULTIMATE.startENTRY_11_Int| |hhv_ULTIMATE.start_L-1_12_Int| |hhv_ULTIMATE.start_L-1_13_Array_Int_Array_Int_Int| |hhv_ULTIMATE.start_L-1_14_Array_Int_Array_Int_Int| |hhv_ULTIMATE.start_L-1_15_Int| |hhv_ULTIMATE.start_L-1_16_Int| |hhv_ULTIMATE.start_L-1_17_Int| |hhv_ULTIMATE.start_L-1_18_Int| |hhv_ULTIMATE.start_L-1_19_Int| |hhv_ULTIMATE.start_L-1_20_Int| |hhv_ULTIMATE.start_L-1_21_Int| |hhv_ULTIMATE.start_L-1_22_Int| |hhv_ULTIMATE.start_L-1_23_Int| |hhv_ULTIMATE.start_L-1_24_Int| |hhv_ULTIMATE.start_L-1_25_Int| |hhv_ULTIMATE.start_L-1_26_Int| |hhv_ULTIMATE.start_L-1_27_Int| |hhv_ULTIMATE.start_L-1_28_Int| |hhv_ULTIMATE.start_L-1_29_Int| |hhv_ULTIMATE.start_L-1_30_Int| |hhv_ULTIMATE.start_L-1_31_Int| |hhv_ULTIMATE.start_L-1_32_Int| |hhv_ULTIMATE.start_L-1_33_Int| |hhv_ULTIMATE.start_L-1_34_Int| |hhv_ULTIMATE.start_L-1_35_Int| |hhv_ULTIMATE.start_L-1_36_Bool| |.loc.3| |.loc.4| |hbv_ULTIMATE.start_L-1_3_Array_Int_Int|) (not (and hhv_ULTIMATE.start_L-1_36_Bool (and .loc.4 (not .loc.3)))))))
(check-sat)
